c Generated map
c Size: 15 * 15, weights in range: 1 to 10, walls: True, with ratio 0.05
c dim 4 of 4
c
p sp 225 379
c graph contains 225 nodes and 379 arcs
c
a 1 16 10
a 16 1 10
a 1 2 1
a 2 1 1
a 2 17 2
a 17 2 2
a 2 3 6
a 3 2 6
a 3 18 7
a 18 3 7
a 3 4 4
a 4 3 4
a 4 19 4
a 19 4 4
a 4 5 3
a 5 4 3
a 5 20 7
a 20 5 7
a 5 6 2
a 6 5 2
a 6 21 5
a 21 6 5
a 6 7 3
a 7 6 3
a 7 22 8
a 22 7 8
a 7 8 2
a 8 7 2
a 8 9 6
a 9 8 6
a 9 24 6
a 24 9 6
a 9 10 6
a 10 9 6
a 10 25 2
a 25 10 2
a 10 11 2
a 11 10 2
a 11 26 2
a 26 11 2
a 11 12 2
a 12 11 2
a 12 27 8
a 27 12 8
a 14 29 2
a 29 14 2
a 14 15 7
a 15 14 7
a 15 30 3
a 30 15 3
a 16 31 7
a 31 16 7
a 16 17 5
a 17 16 5
a 17 32 5
a 32 17 5
a 17 18 6
a 18 17 6
a 18 33 7
a 33 18 7
a 18 19 5
a 19 18 5
a 19 34 6
a 34 19 6
a 19 20 8
a 20 19 8
a 20 35 3
a 35 20 3
a 20 21 5
a 21 20 5
a 21 36 5
a 36 21 5
a 21 22 6
a 22 21 6
a 22 37 6
a 37 22 6
a 24 39 8
a 39 24 8
a 24 25 6
a 25 24 6
a 25 40 9
a 40 25 9
a 25 26 8
a 26 25 8
a 26 41 5
a 41 26 5
a 26 27 5
a 27 26 5
a 27 42 8
a 42 27 8
a 27 28 1
a 28 27 1
a 28 43 8
a 43 28 8
a 28 29 7
a 29 28 7
a 29 30 8
a 30 29 8
a 30 45 2
a 45 30 2
a 31 46 6
a 46 31 6
a 31 32 8
a 32 31 8
a 32 47 6
a 47 32 6
a 32 33 3
a 33 32 3
a 33 48 7
a 48 33 7
a 33 34 4
a 34 33 4
a 34 49 1
a 49 34 1
a 34 35 9
a 35 34 9
a 35 50 3
a 50 35 3
a 35 36 1
a 36 35 1
a 36 51 2
a 51 36 2
a 36 37 1
a 37 36 1
a 37 52 10
a 52 37 10
a 37 38 9
a 38 37 9
a 38 53 9
a 53 38 9
a 38 39 7
a 39 38 7
a 39 54 2
a 54 39 2
a 39 40 5
a 40 39 5
a 40 55 7
a 55 40 7
a 40 41 8
a 41 40 8
a 41 56 3
a 56 41 3
a 41 42 7
a 42 41 7
a 42 57 9
a 57 42 9
a 42 43 4
a 43 42 4
a 43 58 5
a 58 43 5
a 45 60 1
a 60 45 1
a 46 61 5
a 61 46 5
a 46 47 2
a 47 46 2
a 47 62 9
a 62 47 9
a 47 48 7
a 48 47 7
a 48 49 4
a 49 48 4
a 49 64 1
a 64 49 1
a 49 50 10
a 50 49 10
a 50 65 4
a 65 50 4
a 50 51 8
a 51 50 8
a 51 66 3
a 66 51 3
a 51 52 5
a 52 51 5
a 52 67 1
a 67 52 1
a 52 53 4
a 53 52 4
a 53 68 8
a 68 53 8
a 53 54 10
a 54 53 10
a 54 69 8
a 69 54 8
a 54 55 1
a 55 54 1
a 55 56 9
a 56 55 9
a 56 71 8
a 71 56 8
a 56 57 6
a 57 56 6
a 57 72 2
a 72 57 2
a 57 58 2
a 58 57 2
a 58 73 9
a 73 58 9
a 58 59 4
a 59 58 4
a 59 74 9
a 74 59 9
a 59 60 10
a 60 59 10
a 60 75 1
a 75 60 1
a 61 76 8
a 76 61 8
a 61 62 10
a 62 61 10
a 62 77 1
a 77 62 1
a 64 79 10
a 79 64 10
a 64 65 4
a 65 64 4
a 65 80 1
a 80 65 1
a 65 66 7
a 66 65 7
a 66 81 2
a 81 66 2
a 66 67 6
a 67 66 6
a 67 82 8
a 82 67 8
a 67 68 4
a 68 67 4
a 68 83 5
a 83 68 5
a 68 69 7
a 69 68 7
a 69 84 10
a 84 69 10
a 71 86 7
a 86 71 7
a 71 72 6
a 72 71 6
a 72 87 7
a 87 72 7
a 72 73 8
a 73 72 8
a 73 88 9
a 88 73 9
a 73 74 5
a 74 73 5
a 74 89 6
a 89 74 6
a 74 75 8
a 75 74 8
a 75 90 4
a 90 75 4
a 76 91 8
a 91 76 8
a 76 77 7
a 77 76 7
a 77 92 5
a 92 77 5
a 77 78 9
a 78 77 9
a 78 93 3
a 93 78 3
a 78 79 10
a 79 78 10
a 79 94 8
a 94 79 8
a 79 80 3
a 80 79 3
a 80 95 1
a 95 80 1
a 80 81 3
a 81 80 3
a 81 96 8
a 96 81 8
a 81 82 10
a 82 81 10
a 82 97 10
a 97 82 10
a 82 83 7
a 83 82 7
a 83 98 1
a 98 83 1
a 83 84 9
a 84 83 9
a 84 99 3
a 99 84 3
a 84 85 1
a 85 84 1
a 85 100 6
a 100 85 6
a 85 86 5
a 86 85 5
a 86 101 7
a 101 86 7
a 86 87 2
a 87 86 2
a 87 102 10
a 102 87 10
a 87 88 8
a 88 87 8
a 88 103 4
a 103 88 4
a 88 89 2
a 89 88 2
a 89 90 2
a 90 89 2
a 90 105 3
a 105 90 3
a 91 92 8
a 92 91 8
a 92 107 6
a 107 92 6
a 92 93 10
a 93 92 10
a 93 108 1
a 108 93 1
a 93 94 8
a 94 93 8
a 94 109 3
a 109 94 3
a 94 95 5
a 95 94 5
a 95 110 10
a 110 95 10
a 95 96 6
a 96 95 6
a 96 111 3
a 111 96 3
a 96 97 7
a 97 96 7
a 97 112 7
a 112 97 7
a 97 98 8
a 98 97 8
a 98 113 2
a 113 98 2
a 98 99 7
a 99 98 7
a 99 114 2
a 114 99 2
a 99 100 6
a 100 99 6
a 100 115 1
a 115 100 1
a 100 101 1
a 101 100 1
a 101 116 9
a 116 101 9
a 101 102 5
a 102 101 5
a 102 117 3
a 117 102 3
a 102 103 9
a 103 102 9
a 103 118 2
a 118 103 2
a 105 120 10
a 120 105 10
a 107 122 6
a 122 107 6
a 107 108 6
a 108 107 6
a 108 123 8
a 123 108 8
a 108 109 2
a 109 108 2
a 109 124 5
a 124 109 5
a 109 110 1
a 110 109 1
a 110 125 8
a 125 110 8
a 110 111 3
a 111 110 3
a 111 126 7
a 126 111 7
a 111 112 8
a 112 111 8
a 112 127 9
a 127 112 9
a 112 113 7
a 113 112 7
a 113 128 1
a 128 113 1
a 113 114 9
a 114 113 9
a 114 129 3
a 129 114 3
a 114 115 5
a 115 114 5
a 115 130 9
a 130 115 9
a 115 116 7
a 116 115 7
a 116 131 8
a 131 116 8
a 116 117 7
a 117 116 7
a 117 132 3
a 132 117 3
a 117 118 6
a 118 117 6
a 118 133 6
a 133 118 6
a 118 119 6
a 119 118 6
a 119 134 9
a 134 119 9
a 119 120 6
a 120 119 6
a 120 135 8
a 135 120 8
a 121 136 8
a 136 121 8
a 121 122 9
a 122 121 9
a 122 123 7
a 123 122 7
a 123 138 8
a 138 123 8
a 123 124 10
a 124 123 10
a 124 139 6
a 139 124 6
a 124 125 2
a 125 124 2
a 125 140 9
a 140 125 9
a 125 126 10
a 126 125 10
a 126 141 5
a 141 126 5
a 126 127 6
a 127 126 6
a 127 142 7
a 142 127 7
a 127 128 7
a 128 127 7
a 128 143 3
a 143 128 3
a 128 129 9
a 129 128 9
a 129 144 3
a 144 129 3
a 129 130 3
a 130 129 3
a 130 145 7
a 145 130 7
a 130 131 4
a 131 130 4
a 131 146 6
a 146 131 6
a 131 132 4
a 132 131 4
a 132 147 9
a 147 132 9
a 132 133 5
a 133 132 5
a 133 148 5
a 148 133 5
a 133 134 4
a 134 133 4
a 134 149 8
a 149 134 8
a 134 135 2
a 135 134 2
a 135 150 7
a 150 135 7
a 136 151 4
a 151 136 4
a 138 153 7
a 153 138 7
a 138 139 4
a 139 138 4
a 139 154 4
a 154 139 4
a 139 140 6
a 140 139 6
a 140 155 9
a 155 140 9
a 140 141 6
a 141 140 6
a 141 156 4
a 156 141 4
a 141 142 7
a 142 141 7
a 142 157 7
a 157 142 7
a 142 143 6
a 143 142 6
a 143 158 8
a 158 143 8
a 143 144 2
a 144 143 2
a 144 159 3
a 159 144 3
a 144 145 6
a 145 144 6
a 145 160 10
a 160 145 10
a 145 146 9
a 146 145 9
a 146 161 1
a 161 146 1
a 146 147 5
a 147 146 5
a 147 162 3
a 162 147 3
a 147 148 6
a 148 147 6
a 148 163 8
a 163 148 8
a 148 149 7
a 149 148 7
a 149 164 5
a 164 149 5
a 149 150 1
a 150 149 1
a 150 165 8
a 165 150 8
a 151 166 9
a 166 151 9
a 151 152 9
a 152 151 9
a 152 167 1
a 167 152 1
a 152 153 2
a 153 152 2
a 153 168 6
a 168 153 6
a 153 154 9
a 154 153 9
a 154 169 3
a 169 154 3
a 154 155 1
a 155 154 1
a 155 170 1
a 170 155 1
a 155 156 4
a 156 155 4
a 156 171 2
a 171 156 2
a 156 157 2
a 157 156 2
a 157 172 10
a 172 157 10
a 157 158 5
a 158 157 5
a 158 173 2
a 173 158 2
a 158 159 9
a 159 158 9
a 159 174 2
a 174 159 2
a 159 160 2
a 160 159 2
a 160 161 10
a 161 160 10
a 161 176 4
a 176 161 4
a 161 162 6
a 162 161 6
a 162 177 3
a 177 162 3
a 162 163 9
a 163 162 9
a 163 178 1
a 178 163 1
a 163 164 2
a 164 163 2
a 164 179 7
a 179 164 7
a 164 165 7
a 165 164 7
a 165 180 2
a 180 165 2
a 166 181 4
a 181 166 4
a 166 167 10
a 167 166 10
a 167 182 2
a 182 167 2
a 167 168 4
a 168 167 4
a 168 183 1
a 183 168 1
a 168 169 9
a 169 168 9
a 169 184 10
a 184 169 10
a 169 170 2
a 170 169 2
a 170 185 4
a 185 170 4
a 170 171 8
a 171 170 8
a 171 172 9
a 172 171 9
a 172 187 2
a 187 172 2
a 172 173 5
a 173 172 5
a 173 188 8
a 188 173 8
a 173 174 5
a 174 173 5
a 174 189 7
a 189 174 7
a 176 191 2
a 191 176 2
a 176 177 8
a 177 176 8
a 177 192 8
a 192 177 8
a 177 178 3
a 178 177 3
a 178 193 8
a 193 178 8
a 178 179 3
a 179 178 3
a 179 194 10
a 194 179 10
a 179 180 9
a 180 179 9
a 181 196 7
a 196 181 7
a 181 182 8
a 182 181 8
a 182 197 9
a 197 182 9
a 182 183 2
a 183 182 2
a 183 198 8
a 198 183 8
a 183 184 4
a 184 183 4
a 184 199 2
a 199 184 2
a 184 185 9
a 185 184 9
a 185 200 9
a 200 185 9
a 187 202 8
a 202 187 8
a 187 188 1
a 188 187 1
a 188 203 6
a 203 188 6
a 188 189 8
a 189 188 8
a 189 204 10
a 204 189 10
a 189 190 10
a 190 189 10
a 190 205 8
a 205 190 8
a 190 191 3
a 191 190 3
a 191 206 10
a 206 191 10
a 191 192 4
a 192 191 4
a 192 207 8
a 207 192 8
a 192 193 1
a 193 192 1
a 193 208 10
a 208 193 10
a 193 194 1
a 194 193 1
a 194 209 2
a 209 194 2
a 196 211 6
a 211 196 6
a 196 197 1
a 197 196 1
a 197 212 4
a 212 197 4
a 197 198 9
a 198 197 9
a 198 213 10
a 213 198 10
a 198 199 10
a 199 198 10
a 199 214 5
a 214 199 5
a 199 200 7
a 200 199 7
a 200 215 2
a 215 200 2
a 200 201 8
a 201 200 8
a 201 216 8
a 216 201 8
a 201 202 9
a 202 201 9
a 202 217 8
a 217 202 8
a 202 203 1
a 203 202 1
a 203 218 7
a 218 203 7
a 203 204 10
a 204 203 10
a 204 219 5
a 219 204 5
a 204 205 10
a 205 204 10
a 205 220 3
a 220 205 3
a 205 206 5
a 206 205 5
a 206 221 10
a 221 206 10
a 206 207 5
a 207 206 5
a 207 222 5
a 222 207 5
a 207 208 4
a 208 207 4
a 208 223 7
a 223 208 7
a 208 209 3
a 209 208 3
a 209 224 4
a 224 209 4
a 209 210 10
a 210 209 10
a 210 225 6
a 225 210 6
a 211 212 3
a 212 211 3
a 212 213 1
a 213 212 1
a 213 214 1
a 214 213 1
a 214 215 3
a 215 214 3
a 215 216 7
a 216 215 7
a 216 217 2
a 217 216 2
a 217 218 2
a 218 217 2
a 218 219 3
a 219 218 3
a 219 220 4
a 220 219 4
a 220 221 5
a 221 220 5
a 221 222 10
a 222 221 10
a 222 223 10
a 223 222 10
a 223 224 4
a 224 223 4
a 224 225 7
a 225 224 7
